MINIMIZE
   +6. C0000000
   +2. C0000001
   +6. C0000002
   +7. C0000003
   +4. C0000004
   +9. C0000005
   +5. C0000006
   +3. C0000007
   +8. C0000008
   +8. C0000009
   +1. C0000010
   +5. C0000011

SUBJECT TO
R0000000)   +1. C0000000
   +1. C0000004
   +1. C0000008
   > +15. 
R0000001)   +1. C0000001
   +1. C0000005
   +1. C0000009
   > +17. 
R0000002)   +1. C0000002
   +1. C0000006
   +1. C0000010
   > +22. 
R0000003)   +1. C0000003
   +1. C0000007
   +1. C0000011
   > +12. 
R0000004)   +1. C0000000
   +1. C0000001
   +1. C0000002
   +1. C0000003
   < +30. 
R0000005)   +1. C0000004
   +1. C0000005
   +1. C0000006
   +1. C0000007
   < +25. 
R0000006)   +1. C0000008
   +1. C0000009
   +1. C0000010
   +1. C0000011
   < +21. 

END
